myproject/instances/20nodes/rnd27_20.tsp
NAME : rnd27_20.tsp
TYPE : TSP
DIMENSION : 20
EDGE_WEIGHT_TYPE : EUC_2D
NODE_COORD_SECTION
1 131 588
2 676 407
3 183 230
4 520 705
5 821 850
6 344 883
7 793 38
8 887 298
9 725 267
10 663 794
11 659 235
12 540 265
13 194 779
14 551 986
15 605 985
16 83 786
17 18 629
18 991 623
19 62 372
20 645 948
