myproject/instances/20nodes/rnd27_20.opt.tour
NAME : rnd27_20.tsp.tsp.optbc.tour
TYPE : TOUR
DIMENSION : 20
TOUR_SECTION
1
16
13
6
4
20
15
14
10
5
18
8
7
11
9
2
12
3
19
17
-1